p cnf 814 2137
e 1 2 3 4 5 6 7 8 9 10 11 12 13 14 15 16 17 18 19 20 21 22 23 24 25 26 27 28 29 30 31 32 33 34 35 36 37 38 39 40 41 42 43 44 45 46 47 48 49 50 51 52 53 54 55 56 57 58 59 60 61 62 63 64 65 66 67 68 69 70 71 72 73 74 75 76 77 78 79 80 81 82 83 84 85 86 87 88 89 90 91 92 93 94 95 96 97 98 99 100 101 102 103 104 105 106 107 108 109 110 111 112 113 114 115 116 117 118 119 120 121 122 123 124 125 126 127 128 129 130 131 132 133 134 135 136 137 138 139 140 141 142 143 144 145 146 0
a 147 148 149 150 0
e 151 152 153 154 155 156 157 158 159 160 161 162 163 164 165 166 167 168 169 170 171 172 173 174 175 176 177 178 179 180 181 182 183 184 185 186 187 188 189 190 191 192 193 194 195 196 197 198 199 200 201 202 203 204 205 206 207 208 209 210 211 212 213 214 215 216 217 218 219 220 221 222 223 224 225 226 227 228 229 230 231 232 233 234 235 236 237 238 239 240 241 242 243 244 245 246 247 248 249 250 251 252 253 254 255 256 257 258 259 260 261 262 263 264 265 266 267 268 269 270 271 272 273 274 275 276 277 278 279 280 281 282 283 284 285 286 287 288 289 290 291 292 293 294 295 296 297 298 299 300 301 302 303 304 305 306 307 308 309 310 311 312 313 314 315 316 317 318 319 320 321 322 323 324 325 326 327 328 329 330 331 332 333 334 335 336 337 338 339 340 341 342 343 344 345 346 347 348 349 350 351 352 353 354 0
a 355 356 357 358 0
e 359 360 361 362 363 364 365 366 367 368 369 370 371 372 373 374 375 376 377 378 379 380 381 382 383 384 385 386 387 388 389 390 391 392 393 394 395 396 397 398 399 400 401 402 403 404 405 406 407 408 409 410 411 412 413 414 415 416 417 418 419 420 421 422 423 424 425 426 427 428 429 430 431 432 433 434 435 436 437 438 439 440 441 442 443 444 445 446 447 448 449 450 451 452 453 454 455 456 457 458 459 460 461 462 463 464 465 466 467 468 469 470 471 472 473 474 475 476 477 478 479 480 481 482 483 484 485 486 487 488 489 490 491 492 493 494 495 496 497 498 499 500 501 502 503 504 505 506 507 508 509 510 511 512 513 514 515 516 517 518 519 520 521 522 523 524 525 526 527 528 529 530 531 532 533 534 535 536 537 538 539 540 541 542 543 544 545 546 547 548 549 550 551 552 553 554 555 556 557 558 559 560 561 562 0
a 563 564 565 566 0
e 567 568 569 570 571 572 573 574 575 576 577 578 579 580 581 582 583 584 585 586 587 588 589 590 591 592 593 594 595 596 597 598 599 600 601 602 603 604 605 606 607 608 609 610 611 612 613 614 615 616 617 618 619 620 621 622 623 624 625 626 627 628 629 630 631 632 633 634 635 636 637 638 639 640 641 642 643 644 645 646 647 648 649 650 651 652 653 654 655 656 657 658 659 660 661 662 663 664 665 666 667 668 669 670 671 672 673 674 675 676 677 678 679 680 681 682 683 684 685 686 687 688 689 690 691 692 693 694 695 696 697 698 699 700 701 702 703 704 705 706 707 708 709 710 711 712 713 714 715 716 717 718 719 720 721 722 723 724 725 726 727 728 729 730 731 732 733 734 735 736 737 738 739 740 741 742 743 744 745 746 747 748 749 750 751 752 753 754 755 756 757 758 759 760 761 762 763 764 765 766 767 768 769 770 771 772 773 774 775 776 777 778 779 780 781 782 783 784 785 786 787 788 789 790 791 792 793 794 795 796 797 798 799 800 801 802 803 804 805 806 807 808 809 810 811 812 813 814 0
-760 0
725 0
733 0
212 0
631 0
-347 0
-7 0
-144 0
625 0
-556 0
-245 0
770 0
-560 0
-143 0
-548 0
730 0
-557 0
530 0
426 0
-142 0
-662 0
-661 0
-61 0
-547 0
-666 0
-553 0
-758 0
-16 0
-21 0
522 0
-244 0
-38 0
-10 0
-85 0
114 0
731 0
-41 0
-9 0
219 0
-140 0
-658 0
209 0
-135 0
420 0
-343 0
-344 0
-17 0
520 0
726 0
221 0
-665 0
-353 0
-15 0
-457 0
-657 0
313 0
-11 0
-756 0
218 0
-348 0
-32 0
312 0
626 0
-138 0
636 0
-351 0
-660 0
-26 0
-19 0
-39 0
314 0
525 0
739 0
-345 0
-550 0
-116 0
-97 0
111 0
736 0
738 0
-341 0
-814 0
-238 0
-454 0
-757 0
-663 0
-430 0
-459 0
103 0
524 0
-445 0
-94 0
311 0
416 0
-342 0
-656 0
104 0
529 0
-768 0
-350 0
-35 0
210 0
-554 0
-452 0
523 0
423 0
427 0
633 0
-145 0
-70 0
519 0
425 0
216 0
-767 0
-664 0
-64 0
211 0
-448 0
-246 0
-762 0
-561 0
106 0
208 0
-250 0
629 0
-27 0
-91 0
634 0
531 0
215 0
-451 0
-764 0
-240 0
-23 0
-43 0
518 0
-654 0
637 0
-769 0
-6 0
-79 0
-30 0
-455 0
-24 0
729 0
-248 0
-2 0
-88 0
734 0
419 0
-243 0
-134 0
-12 0
-13 0
-31 0
-458 0
630 0
623 0
-42 0
-340 0
217 0
-139 0
214 0
-638 0
-28 0
102 0
322 0
-237 0
-559 0
-133 0
-5 0
417 0
-765 0
-449 0
-131 0
110 0
-659 0
-763 0
-20 0
113 0
318 0
624 0
628 0
-36 0
-82 0
-549 0
220 0
-456 0
-532 0
-222 0
310 0
-352 0
213 0
-132 0
-552 0
517 0
-25 0
418 0
421 0
-136 0
-759 0
-667 0
732 0
735 0
422 0
635 0
-8 0
728 0
424 0
627 0
-141 0
526 0
428 0
-137 0
309 0
-740 0
-3 0
-18 0
-40 0
-761 0
-551 0
-67 0
521 0
737 0
-73 0
316 0
528 0
-766 0
315 0
323 0
-446 0
632 0
-346 0
-34 0
-249 0
-555 0
-242 0
101 0
109 0
-755 0
-247 0
-447 0
321 0
-239 0
-14 0
-22 0
107 0
115 0
1 0
-251 0
-33 0
105 0
108 0
-339 0
320 0
527 0
207 0
415 0
-100 0
317 0
-453 0
-29 0
-37 0
727 0
-653 0
-655 0
-324 0
112 0
-558 0
-76 0
429 0
-349 0
-4 0
319 0
-450 0
-241 0
-146 44 0
-252 146 0
-354 252 0
-460 354 0
-562 460 0
-668 562 0
-60 166 0
-63 169 0
-66 172 0
-69 175 0
-72 178 0
-75 181 0
-78 184 0
-81 187 0
-84 190 0
-87 193 0
-90 196 0
-93 199 0
-96 202 0
-99 205 0
-166 268 0
-169 271 0
-172 274 0
-175 277 0
-178 280 0
-181 283 0
-184 286 0
-187 289 0
-190 292 0
-193 295 0
-196 298 0
-199 301 0
-202 304 0
-205 307 0
-268 374 0
-271 377 0
-274 380 0
-277 383 0
-280 386 0
-283 389 0
-286 392 0
-289 395 0
-292 398 0
-295 401 0
-298 404 0
-301 407 0
-304 410 0
-307 413 0
-374 476 0
-377 479 0
-380 482 0
-383 485 0
-386 488 0
-389 491 0
-392 494 0
-395 497 0
-398 500 0
-401 503 0
-404 506 0
-407 509 0
-410 512 0
-413 515 0
-476 582 0
-479 585 0
-482 588 0
-485 591 0
-488 594 0
-491 597 0
-494 600 0
-497 603 0
-500 606 0
-503 609 0
-506 612 0
-509 615 0
-512 618 0
-515 621 0
-582 684 0
-585 687 0
-588 690 0
-591 693 0
-594 696 0
-597 699 0
-600 702 0
-603 705 0
-606 708 0
-609 711 0
-612 714 0
-615 717 0
-618 720 0
-621 723 0
-167 269 0
-170 272 0
-173 275 0
-176 278 0
-179 281 0
-182 284 0
-185 287 0
-188 290 0
-191 293 0
-194 296 0
-197 299 0
-200 302 0
-203 305 0
-206 308 0
-269 375 0
-272 378 0
-275 381 0
-278 384 0
-281 387 0
-284 390 0
-287 393 0
-290 396 0
-293 399 0
-296 402 0
-299 405 0
-302 408 0
-305 411 0
-308 414 0
-375 477 0
-378 480 0
-381 483 0
-384 486 0
-387 489 0
-390 492 0
-393 495 0
-396 498 0
-399 501 0
-402 504 0
-405 507 0
-408 510 0
-411 513 0
-414 516 0
-477 583 0
-480 586 0
-483 589 0
-486 592 0
-489 595 0
-492 598 0
-495 601 0
-498 604 0
-501 607 0
-504 610 0
-507 613 0
-510 616 0
-513 619 0
-516 622 0
-583 685 0
-586 688 0
-589 691 0
-592 694 0
-595 697 0
-598 700 0
-601 703 0
-604 706 0
-607 709 0
-610 712 0
-613 715 0
-616 718 0
-619 721 0
-622 724 0
-166 -167 0
-169 -170 0
-172 -173 0
-175 -176 0
-178 -179 0
-181 -182 0
-184 -185 0
-187 -188 0
-190 -191 0
-193 -194 0
-196 -197 0
-199 -200 0
-202 -203 0
-205 -206 0
-268 -269 0
-271 -272 0
-274 -275 0
-277 -278 0
-280 -281 0
-283 -284 0
-286 -287 0
-289 -290 0
-292 -293 0
-295 -296 0
-298 -299 0
-301 -302 0
-304 -305 0
-307 -308 0
-374 -375 0
-377 -378 0
-380 -381 0
-383 -384 0
-386 -387 0
-389 -390 0
-392 -393 0
-395 -396 0
-398 -399 0
-401 -402 0
-404 -405 0
-407 -408 0
-410 -411 0
-413 -414 0
-476 -477 0
-479 -480 0
-482 -483 0
-485 -486 0
-488 -489 0
-491 -492 0
-494 -495 0
-497 -498 0
-500 -501 0
-503 -504 0
-506 -507 0
-509 -510 0
-512 -513 0
-515 -516 0
-582 -583 0
-585 -586 0
-588 -589 0
-591 -592 0
-594 -595 0
-597 -598 0
-600 -601 0
-603 -604 0
-606 -607 0
-609 -610 0
-612 -613 0
-615 -616 0
-618 -619 0
-621 -622 0
-684 -685 0
-687 -688 0
-690 -691 0
-693 -694 0
-696 -697 0
-699 -700 0
-702 -703 0
-705 -706 0
-708 -709 0
-711 -712 0
-714 -715 0
-717 -718 0
-720 -721 0
-723 -724 0
-59 60 0
59 -60 0
-62 63 0
62 -63 0
-65 66 0
65 -66 0
-68 69 0
68 -69 0
-71 72 0
71 -72 0
-74 75 0
74 -75 0
-77 78 0
77 -78 0
-80 81 0
80 -81 0
-83 84 0
83 -84 0
-86 87 0
86 -87 0
-89 90 0
89 -90 0
-92 93 0
92 -93 0
-95 96 0
95 -96 0
-98 99 0
98 -99 0
-165 166 167 0
165 -166 0
165 -167 0
-168 169 170 0
168 -169 0
168 -170 0
-171 172 173 0
171 -172 0
171 -173 0
-174 175 176 0
174 -175 0
174 -176 0
-177 178 179 0
177 -178 0
177 -179 0
-180 181 182 0
180 -181 0
180 -182 0
-183 184 185 0
183 -184 0
183 -185 0
-186 187 188 0
186 -187 0
186 -188 0
-189 190 191 0
189 -190 0
189 -191 0
-192 193 194 0
192 -193 0
192 -194 0
-195 196 197 0
195 -196 0
195 -197 0
-198 199 200 0
198 -199 0
198 -200 0
-201 202 203 0
201 -202 0
201 -203 0
-204 205 206 0
204 -205 0
204 -206 0
-267 268 269 0
267 -268 0
267 -269 0
-270 271 272 0
270 -271 0
270 -272 0
-273 274 275 0
273 -274 0
273 -275 0
-276 277 278 0
276 -277 0
276 -278 0
-279 280 281 0
279 -280 0
279 -281 0
-282 283 284 0
282 -283 0
282 -284 0
-285 286 287 0
285 -286 0
285 -287 0
-288 289 290 0
288 -289 0
288 -290 0
-291 292 293 0
291 -292 0
291 -293 0
-294 295 296 0
294 -295 0
294 -296 0
-297 298 299 0
297 -298 0
297 -299 0
-300 301 302 0
300 -301 0
300 -302 0
-303 304 305 0
303 -304 0
303 -305 0
-306 307 308 0
306 -307 0
306 -308 0
-373 374 375 0
373 -374 0
373 -375 0
-376 377 378 0
376 -377 0
376 -378 0
-379 380 381 0
379 -380 0
379 -381 0
-382 383 384 0
382 -383 0
382 -384 0
-385 386 387 0
385 -386 0
385 -387 0
-388 389 390 0
388 -389 0
388 -390 0
-391 392 393 0
391 -392 0
391 -393 0
-394 395 396 0
394 -395 0
394 -396 0
-397 398 399 0
397 -398 0
397 -399 0
-400 401 402 0
400 -401 0
400 -402 0
-403 404 405 0
403 -404 0
403 -405 0
-406 407 408 0
406 -407 0
406 -408 0
-409 410 411 0
409 -410 0
409 -411 0
-412 413 414 0
412 -413 0
412 -414 0
-475 476 477 0
475 -476 0
475 -477 0
-478 479 480 0
478 -479 0
478 -480 0
-481 482 483 0
481 -482 0
481 -483 0
-484 485 486 0
484 -485 0
484 -486 0
-487 488 489 0
487 -488 0
487 -489 0
-490 491 492 0
490 -491 0
490 -492 0
-493 494 495 0
493 -494 0
493 -495 0
-496 497 498 0
496 -497 0
496 -498 0
-499 500 501 0
499 -500 0
499 -501 0
-502 503 504 0
502 -503 0
502 -504 0
-505 506 507 0
505 -506 0
505 -507 0
-508 509 510 0
508 -509 0
508 -510 0
-511 512 513 0
511 -512 0
511 -513 0
-514 515 516 0
514 -515 0
514 -516 0
-581 582 583 0
581 -582 0
581 -583 0
-584 585 586 0
584 -585 0
584 -586 0
-587 588 589 0
587 -588 0
587 -589 0
-590 591 592 0
590 -591 0
590 -592 0
-593 594 595 0
593 -594 0
593 -595 0
-596 597 598 0
596 -597 0
596 -598 0
-599 600 601 0
599 -600 0
599 -601 0
-602 603 604 0
602 -603 0
602 -604 0
-605 606 607 0
605 -606 0
605 -607 0
-608 609 610 0
608 -609 0
608 -610 0
-611 612 613 0
611 -612 0
611 -613 0
-614 615 616 0
614 -615 0
614 -616 0
-617 618 619 0
617 -618 0
617 -619 0
-620 621 622 0
620 -621 0
620 -622 0
-683 684 685 0
683 -684 0
683 -685 0
-686 687 688 0
686 -687 0
686 -688 0
-689 690 691 0
689 -690 0
689 -691 0
-692 693 694 0
692 -693 0
692 -694 0
-695 696 697 0
695 -696 0
695 -697 0
-698 699 700 0
698 -699 0
698 -700 0
-701 702 703 0
701 -702 0
701 -703 0
-704 705 706 0
704 -705 0
704 -706 0
-707 708 709 0
707 -708 0
707 -709 0
-710 711 712 0
710 -711 0
710 -712 0
-713 714 715 0
713 -714 0
713 -715 0
-716 717 718 0
716 -717 0
716 -718 0
-719 720 721 0
719 -720 0
719 -721 0
-722 723 724 0
722 -723 0
722 -724 0
44 -60 0
44 -63 0
44 -66 0
44 -69 0
44 -72 0
44 -75 0
44 -78 0
44 -81 0
44 -84 0
44 -87 0
44 -90 0
44 -93 0
44 -96 0
44 -99 0
146 60 -166 0
146 63 -169 0
146 66 -172 0
146 69 -175 0
146 72 -178 0
146 75 -181 0
146 78 -184 0
146 81 -187 0
146 84 -190 0
146 87 -193 0
146 90 -196 0
146 93 -199 0
146 96 -202 0
146 99 -205 0
252 166 -268 0
252 169 -271 0
252 172 -274 0
252 175 -277 0
252 178 -280 0
252 181 -283 0
252 184 -286 0
252 187 -289 0
252 190 -292 0
252 193 -295 0
252 196 -298 0
252 199 -301 0
252 202 -304 0
252 205 -307 0
354 268 -374 0
354 271 -377 0
354 274 -380 0
354 277 -383 0
354 280 -386 0
354 283 -389 0
354 286 -392 0
354 289 -395 0
354 292 -398 0
354 295 -401 0
354 298 -404 0
354 301 -407 0
354 304 -410 0
354 307 -413 0
460 374 -476 0
460 377 -479 0
460 380 -482 0
460 383 -485 0
460 386 -488 0
460 389 -491 0
460 392 -494 0
460 395 -497 0
460 398 -500 0
460 401 -503 0
460 404 -506 0
460 407 -509 0
460 410 -512 0
460 413 -515 0
562 476 -582 0
562 479 -585 0
562 482 -588 0
562 485 -591 0
562 488 -594 0
562 491 -597 0
562 494 -600 0
562 497 -603 0
562 500 -606 0
562 503 -609 0
562 506 -612 0
562 509 -615 0
562 512 -618 0
562 515 -621 0
668 582 -684 0
668 585 -687 0
668 588 -690 0
668 591 -693 0
668 594 -696 0
668 597 -699 0
668 600 -702 0
668 603 -705 0
668 606 -708 0
668 609 -711 0
668 612 -714 0
668 615 -717 0
668 618 -720 0
668 621 -723 0
146 -167 0
146 -170 0
146 -173 0
146 -176 0
146 -179 0
146 -182 0
146 -185 0
146 -188 0
146 -191 0
146 -194 0
146 -197 0
146 -200 0
146 -203 0
146 -206 0
252 167 -269 0
252 170 -272 0
252 173 -275 0
252 176 -278 0
252 179 -281 0
252 182 -284 0
252 185 -287 0
252 188 -290 0
252 191 -293 0
252 194 -296 0
252 197 -299 0
252 200 -302 0
252 203 -305 0
252 206 -308 0
354 269 -375 0
354 272 -378 0
354 275 -381 0
354 278 -384 0
354 281 -387 0
354 284 -390 0
354 287 -393 0
354 290 -396 0
354 293 -399 0
354 296 -402 0
354 299 -405 0
354 302 -408 0
354 305 -411 0
354 308 -414 0
460 375 -477 0
460 378 -480 0
460 381 -483 0
460 384 -486 0
460 387 -489 0
460 390 -492 0
460 393 -495 0
460 396 -498 0
460 399 -501 0
460 402 -504 0
460 405 -507 0
460 408 -510 0
460 411 -513 0
460 414 -516 0
562 477 -583 0
562 480 -586 0
562 483 -589 0
562 486 -592 0
562 489 -595 0
562 492 -598 0
562 495 -601 0
562 498 -604 0
562 501 -607 0
562 504 -610 0
562 507 -613 0
562 510 -616 0
562 513 -619 0
562 516 -622 0
668 583 -685 0
668 586 -688 0
668 589 -691 0
668 592 -694 0
668 595 -697 0
668 598 -700 0
668 601 -703 0
668 604 -706 0
668 607 -709 0
668 610 -712 0
668 613 -715 0
668 616 -718 0
668 619 -721 0
668 622 -724 0
45 -60 0
46 -63 0
47 -66 0
48 -69 0
49 -72 0
50 -75 0
51 -78 0
52 -81 0
53 -84 0
54 -87 0
55 -90 0
56 -93 0
57 -96 0
58 -99 0
253 166 -268 0
167 -269 0
254 169 -271 0
170 -272 0
255 172 -274 0
173 -275 0
256 175 -277 0
176 -278 0
257 178 -280 0
179 -281 0
258 181 -283 0
182 -284 0
259 184 -286 0
185 -287 0
260 187 -289 0
188 -290 0
261 190 -292 0
191 -293 0
262 193 -295 0
194 -296 0
263 196 -298 0
197 -299 0
264 199 -301 0
200 -302 0
265 202 -304 0
203 -305 0
266 205 -307 0
206 -308 0
461 374 -476 0
375 -477 0
462 377 -479 0
378 -480 0
463 380 -482 0
381 -483 0
464 383 -485 0
384 -486 0
465 386 -488 0
387 -489 0
466 389 -491 0
390 -492 0
467 392 -494 0
393 -495 0
468 395 -497 0
396 -498 0
469 398 -500 0
399 -501 0
470 401 -503 0
402 -504 0
471 404 -506 0
405 -507 0
472 407 -509 0
408 -510 0
473 410 -512 0
411 -513 0
474 413 -515 0
414 -516 0
669 582 -684 0
583 -685 0
670 585 -687 0
586 -688 0
671 588 -690 0
589 -691 0
672 591 -693 0
592 -694 0
673 594 -696 0
595 -697 0
674 597 -699 0
598 -700 0
675 600 -702 0
601 -703 0
676 603 -705 0
604 -706 0
677 606 -708 0
607 -709 0
678 609 -711 0
610 -712 0
679 612 -714 0
613 -715 0
680 615 -717 0
616 -718 0
681 618 -720 0
619 -721 0
682 621 -723 0
622 -724 0
151 -167 0
60 -166 0
152 -170 0
63 -169 0
153 -173 0
66 -172 0
154 -176 0
69 -175 0
155 -179 0
72 -178 0
156 -182 0
75 -181 0
157 -185 0
78 -184 0
158 -188 0
81 -187 0
159 -191 0
84 -190 0
160 -194 0
87 -193 0
161 -197 0
90 -196 0
162 -200 0
93 -199 0
163 -203 0
96 -202 0
164 -206 0
99 -205 0
359 269 -375 0
268 -374 0
360 272 -378 0
271 -377 0
361 275 -381 0
274 -380 0
362 278 -384 0
277 -383 0
363 281 -387 0
280 -386 0
364 284 -390 0
283 -389 0
365 287 -393 0
286 -392 0
366 290 -396 0
289 -395 0
367 293 -399 0
292 -398 0
368 296 -402 0
295 -401 0
369 299 -405 0
298 -404 0
370 302 -408 0
301 -407 0
371 305 -411 0
304 -410 0
372 308 -414 0
307 -413 0
567 477 -583 0
476 -582 0
568 480 -586 0
479 -585 0
569 483 -589 0
482 -588 0
570 486 -592 0
485 -591 0
571 489 -595 0
488 -594 0
572 492 -598 0
491 -597 0
573 495 -601 0
494 -600 0
574 498 -604 0
497 -603 0
575 501 -607 0
500 -606 0
576 504 -610 0
503 -609 0
577 507 -613 0
506 -612 0
578 510 -616 0
509 -615 0
579 513 -619 0
512 -618 0
580 516 -622 0
515 -621 0
771 -684 -687 -690 0
-771 684 0
-771 687 0
-771 690 0
772 -684 -687 -699 -702 0
-772 684 0
-772 687 0
-772 699 0
-772 702 0
773 -684 -687 -699 -708 -717 -720 -714 0
-773 684 0
-773 687 0
-773 699 0
-773 708 0
-773 717 0
-773 720 0
-773 714 0
774 -684 -687 -699 -708 -717 -720 -723 0
-774 684 0
-774 687 0
-774 699 0
-774 708 0
-774 717 0
-774 720 0
-774 723 0
775 -684 -687 -699 -711 -714 0
-775 684 0
-775 687 0
-775 699 0
-775 711 0
-775 714 0
776 -684 -687 -699 -711 -720 -723 0
-776 684 0
-776 687 0
-776 699 0
-776 711 0
-776 720 0
-776 723 0
777 -684 -696 -699 -690 0
-777 684 0
-777 696 0
-777 699 0
-777 690 0
778 -684 -696 -699 -702 0
-778 684 0
-778 696 0
-778 699 0
-778 702 0
779 -684 -696 -699 -711 -714 0
-779 684 0
-779 696 0
-779 699 0
-779 711 0
-779 714 0
780 -684 -696 -699 -711 -720 -723 0
-780 684 0
-780 696 0
-780 699 0
-780 711 0
-780 720 0
-780 723 0
781 -684 -696 -708 -711 -702 0
-781 684 0
-781 696 0
-781 708 0
-781 711 0
-781 702 0
782 -684 -696 -708 -711 -714 0
-782 684 0
-782 696 0
-782 708 0
-782 711 0
-782 714 0
783 -684 -696 -708 -711 -720 -723 0
-783 684 0
-783 696 0
-783 708 0
-783 711 0
-783 720 0
-783 723 0
784 -684 -696 -708 -717 -720 -714 0
-784 684 0
-784 696 0
-784 708 0
-784 717 0
-784 720 0
-784 714 0
785 -684 -696 -708 -717 -720 -723 0
-785 684 0
-785 696 0
-785 708 0
-785 717 0
-785 720 0
-785 723 0
786 -693 -684 -687 -690 0
-786 693 0
-786 684 0
-786 687 0
-786 690 0
787 -693 -684 -687 -699 -702 0
-787 693 0
-787 684 0
-787 687 0
-787 699 0
-787 702 0
788 -693 -684 -687 -699 -708 -717 -720 -714 0
-788 693 0
-788 684 0
-788 687 0
-788 699 0
-788 708 0
-788 717 0
-788 720 0
-788 714 0
789 -693 -684 -687 -699 -708 -717 -720 -723 0
-789 693 0
-789 684 0
-789 687 0
-789 699 0
-789 708 0
-789 717 0
-789 720 0
-789 723 0
790 -693 -684 -687 -699 -711 -714 0
-790 693 0
-790 684 0
-790 687 0
-790 699 0
-790 711 0
-790 714 0
791 -693 -684 -687 -699 -711 -720 -723 0
-791 693 0
-791 684 0
-791 687 0
-791 699 0
-791 711 0
-791 720 0
-791 723 0
792 -693 -696 -687 -690 0
-792 693 0
-792 696 0
-792 687 0
-792 690 0
793 -693 -696 -699 -690 0
-793 693 0
-793 696 0
-793 699 0
-793 690 0
794 -693 -696 -699 -702 0
-794 693 0
-794 696 0
-794 699 0
-794 702 0
795 -693 -696 -699 -711 -714 0
-795 693 0
-795 696 0
-795 699 0
-795 711 0
-795 714 0
796 -693 -696 -699 -711 -720 -723 0
-796 693 0
-796 696 0
-796 699 0
-796 711 0
-796 720 0
-796 723 0
797 -693 -696 -708 -711 -702 0
-797 693 0
-797 696 0
-797 708 0
-797 711 0
-797 702 0
798 -693 -696 -708 -711 -714 0
-798 693 0
-798 696 0
-798 708 0
-798 711 0
-798 714 0
799 -693 -696 -708 -711 -720 -723 0
-799 693 0
-799 696 0
-799 708 0
-799 711 0
-799 720 0
-799 723 0
800 -693 -696 -708 -717 -720 -714 0
-800 693 0
-800 696 0
-800 708 0
-800 717 0
-800 720 0
-800 714 0
801 -693 -696 -708 -717 -720 -723 0
-801 693 0
-801 696 0
-801 708 0
-801 717 0
-801 720 0
-801 723 0
802 -705 -696 -687 -690 0
-802 705 0
-802 696 0
-802 687 0
-802 690 0
803 -705 -696 -699 -690 0
-803 705 0
-803 696 0
-803 699 0
-803 690 0
804 -705 -696 -699 -702 0
-804 705 0
-804 696 0
-804 699 0
-804 702 0
805 -705 -696 -699 -711 -714 0
-805 705 0
-805 696 0
-805 699 0
-805 711 0
-805 714 0
806 -705 -696 -699 -711 -720 -723 0
-806 705 0
-806 696 0
-806 699 0
-806 711 0
-806 720 0
-806 723 0
807 -705 -708 -699 -690 0
-807 705 0
-807 708 0
-807 699 0
-807 690 0
808 -705 -708 -699 -702 0
-808 705 0
-808 708 0
-808 699 0
-808 702 0
809 -705 -708 -711 -702 0
-809 705 0
-809 708 0
-809 711 0
-809 702 0
810 -705 -708 -711 -714 0
-810 705 0
-810 708 0
-810 711 0
-810 714 0
811 -705 -708 -711 -720 -723 0
-811 705 0
-811 708 0
-811 711 0
-811 720 0
-811 723 0
812 -705 -708 -717 -720 -714 0
-812 705 0
-812 708 0
-812 717 0
-812 720 0
-812 714 0
813 -705 -708 -717 -720 -723 0
-813 705 0
-813 708 0
-813 717 0
-813 720 0
-813 723 0
771 772 773 774 775 776 777 778 779 780 781 782 783 784 785 786 787 788 789 790 791 792 793 794 795 796 797 798 799 800 801 802 803 804 805 806 807 808 809 810 811 812 813 0
-45 117 0
45 -117 0
-46 118 0
-117 118 0
46 -118 117 0
-46 -117 0
-47 119 0
-118 119 0
47 -119 118 0
-47 -118 0
-48 120 0
-119 120 0
48 -120 119 0
-48 -119 0
-49 121 0
-120 121 0
49 -121 120 0
-49 -120 0
-50 122 0
-121 122 0
50 -122 121 0
-50 -121 0
-51 123 0
-122 123 0
51 -123 122 0
-51 -122 0
-52 124 0
-123 124 0
52 -124 123 0
-52 -123 0
-53 125 0
-124 125 0
53 -125 124 0
-53 -124 0
-54 126 0
-125 126 0
54 -126 125 0
-54 -125 0
-55 127 0
-126 127 0
55 -127 126 0
-55 -126 0
-56 128 0
-127 128 0
56 -128 127 0
-56 -127 0
-57 129 0
-128 129 0
57 -129 128 0
-57 -128 0
-58 130 0
-129 130 0
58 -130 129 0
-58 -129 0
-253 325 0
253 -325 0
-254 326 0
-325 326 0
254 -326 325 0
-254 -325 0
-255 327 0
-326 327 0
255 -327 326 0
-255 -326 0
-256 328 0
-327 328 0
256 -328 327 0
-256 -327 0
-257 329 0
-328 329 0
257 -329 328 0
-257 -328 0
-258 330 0
-329 330 0
258 -330 329 0
-258 -329 0
-259 331 0
-330 331 0
259 -331 330 0
-259 -330 0
-260 332 0
-331 332 0
260 -332 331 0
-260 -331 0
-261 333 0
-332 333 0
261 -333 332 0
-261 -332 0
-262 334 0
-333 334 0
262 -334 333 0
-262 -333 0
-263 335 0
-334 335 0
263 -335 334 0
-263 -334 0
-264 336 0
-335 336 0
264 -336 335 0
-264 -335 0
-265 337 0
-336 337 0
265 -337 336 0
-265 -336 0
-266 338 0
-337 338 0
266 -338 337 0
-266 -337 0
-461 533 0
461 -533 0
-462 534 0
-533 534 0
462 -534 533 0
-462 -533 0
-463 535 0
-534 535 0
463 -535 534 0
-463 -534 0
-464 536 0
-535 536 0
464 -536 535 0
-464 -535 0
-465 537 0
-536 537 0
465 -537 536 0
-465 -536 0
-466 538 0
-537 538 0
466 -538 537 0
-466 -537 0
-467 539 0
-538 539 0
467 -539 538 0
-467 -538 0
-468 540 0
-539 540 0
468 -540 539 0
-468 -539 0
-469 541 0
-540 541 0
469 -541 540 0
-469 -540 0
-470 542 0
-541 542 0
470 -542 541 0
-470 -541 0
-471 543 0
-542 543 0
471 -543 542 0
-471 -542 0
-472 544 0
-543 544 0
472 -544 543 0
-472 -543 0
-473 545 0
-544 545 0
473 -545 544 0
-473 -544 0
-474 546 0
-545 546 0
474 -546 545 0
-474 -545 0
-669 741 0
669 -741 0
-670 742 0
-741 742 0
670 -742 741 0
-670 -741 0
-671 743 0
-742 743 0
671 -743 742 0
-671 -742 0
-672 744 0
-743 744 0
672 -744 743 0
-672 -743 0
-673 745 0
-744 745 0
673 -745 744 0
-673 -744 0
-674 746 0
-745 746 0
674 -746 745 0
-674 -745 0
-675 747 0
-746 747 0
675 -747 746 0
-675 -746 0
-676 748 0
-747 748 0
676 -748 747 0
-676 -747 0
-677 749 0
-748 749 0
677 -749 748 0
-677 -748 0
-678 750 0
-749 750 0
678 -750 749 0
-678 -749 0
-679 751 0
-750 751 0
679 -751 750 0
-679 -750 0
-680 752 0
-751 752 0
680 -752 751 0
-680 -751 0
-681 753 0
-752 753 0
681 -753 752 0
-681 -752 0
-682 754 0
-753 754 0
682 -754 753 0
-682 -753 0
-151 223 0
151 -223 0
-152 224 0
-223 224 0
152 -224 223 0
-152 -223 0
-153 225 0
-224 225 0
153 -225 224 0
-153 -224 0
-154 226 0
-225 226 0
154 -226 225 0
-154 -225 0
-155 227 0
-226 227 0
155 -227 226 0
-155 -226 0
-156 228 0
-227 228 0
156 -228 227 0
-156 -227 0
-157 229 0
-228 229 0
157 -229 228 0
-157 -228 0
-158 230 0
-229 230 0
158 -230 229 0
-158 -229 0
-159 231 0
-230 231 0
159 -231 230 0
-159 -230 0
-160 232 0
-231 232 0
160 -232 231 0
-160 -231 0
-161 233 0
-232 233 0
161 -233 232 0
-161 -232 0
-162 234 0
-233 234 0
162 -234 233 0
-162 -233 0
-163 235 0
-234 235 0
163 -235 234 0
-163 -234 0
-164 236 0
-235 236 0
164 -236 235 0
-164 -235 0
-359 431 0
359 -431 0
-360 432 0
-431 432 0
360 -432 431 0
-360 -431 0
-361 433 0
-432 433 0
361 -433 432 0
-361 -432 0
-362 434 0
-433 434 0
362 -434 433 0
-362 -433 0
-363 435 0
-434 435 0
363 -435 434 0
-363 -434 0
-364 436 0
-435 436 0
364 -436 435 0
-364 -435 0
-365 437 0
-436 437 0
365 -437 436 0
-365 -436 0
-366 438 0
-437 438 0
366 -438 437 0
-366 -437 0
-367 439 0
-438 439 0
367 -439 438 0
-367 -438 0
-368 440 0
-439 440 0
368 -440 439 0
-368 -439 0
-369 441 0
-440 441 0
369 -441 440 0
-369 -440 0
-370 442 0
-441 442 0
370 -442 441 0
-370 -441 0
-371 443 0
-442 443 0
371 -443 442 0
-371 -442 0
-372 444 0
-443 444 0
372 -444 443 0
-372 -443 0
-567 639 0
567 -639 0
-568 640 0
-639 640 0
568 -640 639 0
-568 -639 0
-569 641 0
-640 641 0
569 -641 640 0
-569 -640 0
-570 642 0
-641 642 0
570 -642 641 0
-570 -641 0
-571 643 0
-642 643 0
571 -643 642 0
-571 -642 0
-572 644 0
-643 644 0
572 -644 643 0
-572 -643 0
-573 645 0
-644 645 0
573 -645 644 0
-573 -644 0
-574 646 0
-645 646 0
574 -646 645 0
-574 -645 0
-575 647 0
-646 647 0
575 -647 646 0
-575 -646 0
-576 648 0
-647 648 0
576 -648 647 0
-576 -647 0
-577 649 0
-648 649 0
577 -649 648 0
-577 -648 0
-578 650 0
-649 650 0
578 -650 649 0
-578 -649 0
-579 651 0
-650 651 0
579 -651 650 0
-579 -650 0
-580 652 0
-651 652 0
580 -652 651 0
-580 -651 0
-44 130 0
-252 338 0
-460 546 0
-668 754 0
-146 236 0
-354 444 0
-562 652 0
-45 60 0
-45 44 0
-46 63 0
-46 44 0
-47 66 0
-47 44 0
-48 69 0
-48 44 0
-49 72 0
-49 44 0
-50 75 0
-50 44 0
-51 78 0
-51 44 0
-52 81 0
-52 44 0
-53 84 0
-53 44 0
-54 87 0
-54 44 0
-55 90 0
-55 44 0
-56 93 0
-56 44 0
-57 96 0
-57 44 0
-58 99 0
-58 44 0
-253 268 0
-253 -165 0
-253 252 0
-254 271 0
-254 -168 0
-254 252 0
-255 274 0
-255 -171 0
-255 252 0
-256 277 0
-256 -174 0
-256 252 0
-257 280 0
-257 -177 0
-257 252 0
-258 283 0
-258 -180 0
-258 252 0
-259 286 0
-259 -183 0
-259 252 0
-260 289 0
-260 -186 0
-260 252 0
-261 292 0
-261 -189 0
-261 252 0
-262 295 0
-262 -192 0
-262 252 0
-263 298 0
-263 -195 0
-263 252 0
-264 301 0
-264 -198 0
-264 252 0
-265 304 0
-265 -201 0
-265 252 0
-266 307 0
-266 -204 0
-266 252 0
-461 476 0
-461 -373 0
-461 460 0
-462 479 0
-462 -376 0
-462 460 0
-463 482 0
-463 -379 0
-463 460 0
-464 485 0
-464 -382 0
-464 460 0
-465 488 0
-465 -385 0
-465 460 0
-466 491 0
-466 -388 0
-466 460 0
-467 494 0
-467 -391 0
-467 460 0
-468 497 0
-468 -394 0
-468 460 0
-469 500 0
-469 -397 0
-469 460 0
-470 503 0
-470 -400 0
-470 460 0
-471 506 0
-471 -403 0
-471 460 0
-472 509 0
-472 -406 0
-472 460 0
-473 512 0
-473 -409 0
-473 460 0
-474 515 0
-474 -412 0
-474 460 0
-669 684 0
-669 -581 0
-669 668 0
-670 687 0
-670 -584 0
-670 668 0
-671 690 0
-671 -587 0
-671 668 0
-672 693 0
-672 -590 0
-672 668 0
-673 696 0
-673 -593 0
-673 668 0
-674 699 0
-674 -596 0
-674 668 0
-675 702 0
-675 -599 0
-675 668 0
-676 705 0
-676 -602 0
-676 668 0
-677 708 0
-677 -605 0
-677 668 0
-678 711 0
-678 -608 0
-678 668 0
-679 714 0
-679 -611 0
-679 668 0
-680 717 0
-680 -614 0
-680 668 0
-681 720 0
-681 -617 0
-681 668 0
-682 723 0
-682 -620 0
-682 668 0
-151 167 0
-151 -59 0
-151 146 0
-152 170 0
-152 -62 0
-152 146 0
-153 173 0
-153 -65 0
-153 146 0
-154 176 0
-154 -68 0
-154 146 0
-155 179 0
-155 -71 0
-155 146 0
-156 182 0
-156 -74 0
-156 146 0
-157 185 0
-157 -77 0
-157 146 0
-158 188 0
-158 -80 0
-158 146 0
-159 191 0
-159 -83 0
-159 146 0
-160 194 0
-160 -86 0
-160 146 0
-161 197 0
-161 -89 0
-161 146 0
-162 200 0
-162 -92 0
-162 146 0
-163 203 0
-163 -95 0
-163 146 0
-164 206 0
-164 -98 0
-164 146 0
-359 375 0
-359 -267 0
-359 354 0
-360 378 0
-360 -270 0
-360 354 0
-361 381 0
-361 -273 0
-361 354 0
-362 384 0
-362 -276 0
-362 354 0
-363 387 0
-363 -279 0
-363 354 0
-364 390 0
-364 -282 0
-364 354 0
-365 393 0
-365 -285 0
-365 354 0
-366 396 0
-366 -288 0
-366 354 0
-367 399 0
-367 -291 0
-367 354 0
-368 402 0
-368 -294 0
-368 354 0
-369 405 0
-369 -297 0
-369 354 0
-370 408 0
-370 -300 0
-370 354 0
-371 411 0
-371 -303 0
-371 354 0
-372 414 0
-372 -306 0
-372 354 0
-567 583 0
-567 -475 0
-567 562 0
-568 586 0
-568 -478 0
-568 562 0
-569 589 0
-569 -481 0
-569 562 0
-570 592 0
-570 -484 0
-570 562 0
-571 595 0
-571 -487 0
-571 562 0
-572 598 0
-572 -490 0
-572 562 0
-573 601 0
-573 -493 0
-573 562 0
-574 604 0
-574 -496 0
-574 562 0
-575 607 0
-575 -499 0
-575 562 0
-576 610 0
-576 -502 0
-576 562 0
-577 613 0
-577 -505 0
-577 562 0
-578 616 0
-578 -508 0
-578 562 0
-579 619 0
-579 -511 0
-579 562 0
-580 622 0
-580 -514 0
-580 562 0
-146 59 -147 -148 -149 -150 151 0
-146 62 147 -148 -149 -150 152 0
-146 65 -147 148 -149 -150 153 0
-146 68 147 148 -149 -150 154 0
-146 71 -147 -148 149 -150 155 0
-146 74 147 -148 149 -150 156 0
-146 77 -147 148 149 -150 157 0
-146 80 147 148 149 -150 158 0
-146 83 -147 -148 -149 150 159 0
-146 86 147 -148 -149 150 160 0
-146 89 -147 148 -149 150 161 0
-146 92 147 148 -149 150 162 0
-146 95 -147 -148 149 150 163 0
-146 98 147 -148 149 150 164 0
-354 267 -355 -356 -357 -358 359 0
-354 270 355 -356 -357 -358 360 0
-354 273 -355 356 -357 -358 361 0
-354 276 355 356 -357 -358 362 0
-354 279 -355 -356 357 -358 363 0
-354 282 355 -356 357 -358 364 0
-354 285 -355 356 357 -358 365 0
-354 288 355 356 357 -358 366 0
-354 291 -355 -356 -357 358 367 0
-354 294 355 -356 -357 358 368 0
-354 297 -355 356 -357 358 369 0
-354 300 355 356 -357 358 370 0
-354 303 -355 -356 357 358 371 0
-354 306 355 -356 357 358 372 0
-562 475 -563 -564 -565 -566 567 0
-562 478 563 -564 -565 -566 568 0
-562 481 -563 564 -565 -566 569 0
-562 484 563 564 -565 -566 570 0
-562 487 -563 -564 565 -566 571 0
-562 490 563 -564 565 -566 572 0
-562 493 -563 564 565 -566 573 0
-562 496 563 564 565 -566 574 0
-562 499 -563 -564 -565 566 575 0
-562 502 563 -564 -565 566 576 0
-562 505 -563 564 -565 566 577 0
-562 508 563 564 -565 566 578 0
-562 511 -563 -564 565 566 579 0
-562 514 563 -564 565 566 580 0
